problem_generation/data/GISP/train/er_n=62_m=1099_p=0.60_SET2_setparam=100.00_alpha=0.50_102.lp
maximize
OBJ:100x0 + 100x1 + 100x2 + 100x3 + 100x4 + 100x5 + 100x6 + 100x7 + 100x8 + 100x9 + 100x10 + 100x11 + 100x12 + 100x13 + 100x14 + 100x15 + 100x16 + 100x17 + 100x18 + 100x19 + 100x20 + 100x21 + 100x22 + 100x23 + 100x24 + 100x25 + 100x26 + 100x27 + 100x28 + 100x29 + 100x30 + 100x31 + 100x32 + 100x33 + 100x34 + 100x35 + 100x36 + 100x37 + 100x38 + 100x39 + 100x40 + 100x41 + 100x42 + 100x43 + 100x44 + 100x45 + 100x46 + 100x47 + 100x48 + 100x49 + 100x50 + 100x51 + 100x52 + 100x53 + 100x54 + 100x55 + 100x56 + 100x57 + 100x58 + 100x59 + 100x60 + 100x61 - y47_53 - y15_30 - y26_30 - y15_39 - y26_39 - y8_9 - y0_23 - y40_59 - y41_51 - y10_45 - y33_47 - y44_47 - y44_56 - y2_50 - y3_15 - y14_15 - y2_59 - y25_61 - y7_12 - y17_44 - y7_21 - y36_57 - y29_36 - y0_9 - y29_45 - y48_58 - y29_54 - y6_61 - y2_27 - y2_36 - y43_55 - y13_51 - y3_28 - y14_28 - y24_60 - y35_60 - y36_43 - y17_39 - y7_16 - y28_48 - y36_61 - y47_61 - y5_55 - y17_57 - y29_31 - y6_38 - y29_40 - y48_53 - y29_49 - y21_45 - y6_56 - y2_13 - y54_60 - y10_35 - y25_33 - y10_44 - y32_41 - y51_54 - y1_53 - y14_32 - y16_51 - y16_60 - y17_25 - y36_38 - y17_34 - y9_30 - y55_60 - y28_43 - y9_39 - y9_48 - y17_61 - y9_57 - y21_40 - y21_49 - y2_17 - y12_58 - y2_35 - y13_32 - y43_45 - y51_58 - y13_41 - y14_18 - y16_37 - y35_50 - y35_59 - y17_20 - y28_29 - y36_42 - y17_38 - y47_51 - y9_34 - y5_54 - y17_56 - y9_52 - y50_53 - y2_21 - y54_59 - y4_58 - y51_53 - y13_45 - y16_41 - y13_54 - y16_50 - y17_24 - y36_37 - y9_20 - y28_33 - y17_42 - y9_38 - y6_14 - y5_58 - y6_23 - y58_61 - y21_30 - y8_60 - y30_60 - y11_56 - y39_47 - y20_43 - y23_39 - y2_16 - y23_48 - y13_31 - y32_44 - y16_36 - y24_49 - y35_49 - y35_58 - y17_19 - y17_28 - y9_24 - y19_46 - y30_55 - y42_57 - y11_51 - y0_60 - y11_60 - y23_25 - y39_51 - y20_56 - y23_52 - y1_15 - y12_61 - y1_24 - y13_26 - y24_26 - y32_39 - y34_58 - y1_33 - y13_35 - y1_42 - y16_40 - y1_51 - y5_21 - y57_59 - y26_53 - y6_13 - y19_41 - y30_41 - y42_43 - y19_50 - y42_52 - y8_59 - y20_24 - y30_59 - y11_55 - y12_20 - y20_33 - y12_29 - y31_42 - y23_38 - y31_51 - y4_34 - y1_10 - y1_19 - y13_21 - y16_26 - y37_58 - y1_46 - y46_54 - y9_14 - y26_48 - y49_50 - y49_59 - y7_53 - y8_36 - y27_49 - y42_47 - y42_56 - y11_50 - y20_28 - y4_11 - y12_24 - y23_24 - y20_37 - y31_37 - y12_33 - y23_33 - y12_42 - y4_38 - y1_14 - y45_48 - y1_23 - y34_57 - y1_32 - y15_34 - y5_11 - y15_43 - y26_43 - y38_45 - y18_39 - y57_58 - y26_52 - y49_54 - y8_13 - y8_22 - y11_18 - y8_31 - y30_31 - y30_40 - y11_36 - y30_49 - y41_46 - y12_19 - y33_51 - y4_33 - y1_18 - y53_56 - y22_50 - y34_61 - y14_55 - y15_20 - y18_25 - y38_40 - y18_34 - y26_56 - y11_13 - y18_61 - y19_26 - y27_39 - y19_35 - y30_35 - y0_31 - y11_31 - y19_44 - y11_49 - y41_50 - y33_46 - y41_59 - y44_55 - y4_28 - y25_60 - y34_38 - y3_32 - y3_41 - y14_41 - y22_54 - y14_50 - y37_61 - y15_24 - y7_20 - y7_29 - y26_42 - y15_51 - y18_56 - y19_21 - y48_57 - y19_30 - y4_5 - y25_37 - y10_57 - y3_27 - y3_45 - y37_47 - y37_56 - y26_28 - y18_33 - y26_46 - y0_3 - y48_52 - y0_12 - y11_12 - y11_21 - y40_57 - y33_36 - y41_49 - y10_43 - y44_45 - y25_41 - y2_57 - y3_22 - y25_59 - y3_31 - y14_49 - y15_23 - y55_59 - y18_19 - y9_56 - y6_41 - y40_43 - y48_56 - y29_52 - y21_57 - y10_29 - y2_25 - y33_40 - y2_34 - y44_49 - y2_43 - y14_17 - y22_30 - y3_26 - y24_58 - y18_23 - y9_42 - y59_61 - y17_55 - y28_55 - y29_38 - y6_45 - y21_43 - y21_61 - y10_24 - y54_58 - y2_29 - y25_31 - y33_44 - y10_51 - y3_12 - y32_48 - y14_21 - y32_57 - y24_53 - y28_32 - y36_54 - y5_48 - y6_22 - y6_40 - y40_42 - y40_51 - y21_47 - y2_24 - y13_39 - y3_16 - y32_52 - y24_48 - y35_48 - y3_25 - y43_61 - y5_34 - y17_36 - y47_49 - y36_58 - y47_58 - y9_59 - y29_37 - y2_10 - y31_46 - y2_19 - y23_60 - y2_37 - y13_34 - y24_34 - y43_47 - y32_56 - y1_50 - y24_52 - y35_52 - y13_61 - y17_22 - y36_44 - y9_27 - y5_38 - y17_40 - y28_40 - y9_36 - y42_51 - y42_60 - y20_41 - y31_50 - y23_46 - y20_59 - y4_42 - y54_61 - y12_55 - y13_20 - y4_51 - y32_33 - y32_42 - y16_25 - y51_55 - y32_51 - y35_47 - y5_15 - y5_24 - y6_7 - y5_51 - y27_48 - y6_25 - y42_46 - y21_23 - y0_49 - y11_58 - y39_40 - y20_36 - y23_32 - y31_45 - y39_58 - y4_46 - y13_33 - y43_46 - y35_42 - y35_51 - y16_47 - y5_19 - y46_57 - y9_26 - y15_60 - y27_34 - y30_48 - y0_44 - y30_57 - y20_22 - y39_44 - y20_58 - y4_41 - y12_54 - y1_17 - y23_54 - y53_55 - y56_60 - y1_35 - y1_44 - y16_42 - y46_52 - y5_23 - y57_61 - y5_32 - y7_60 - y8_25 - y8_34 - y0_30 - y19_43 - y12_13 - y31_35 - y20_44 - y4_27 - y1_3 - y4_36 - y53_59 - y34_55 - y45_55 - y3_58 - y46_47 - y38_43 - y46_56 - y9_16 - y26_50 - y38_52 - y49_52 - y38_61 - y27_33 - y8_29 - y27_42 - y0_25 - y8_47 - y30_47 - y42_49 - y0_43 - y11_43 - y8_56 - y12_17 - y20_30 - y12_35 - y4_40 - y13_18 - y16_23 - y22_57 - y15_27 - y26_27 - y15_36 - y18_32 - y7_41 - y7_50 - y8_15 - y19_24 - y11_20 - y8_33 - y19_33 - y27_46 - y19_42 - y19_51 - y41_57 - y52_57 - y25_49 - y1_2 - y34_45 - y53_58 - y37_41 - y34_54 - y45_54 - y37_50 - y22_61 - y15_40 - y38_42 - y7_36 - y15_49 - y11_15 - y11_24 - y8_37 - y21_56 - y30_37 - y0_33 - y0_42 - y41_43 - y33_39 - y12_16 - y10_46 - y41_61 - y25_44 - y4_21 - y33_57 - y44_57 - y2_51 - y25_53 - y45_49 - y14_43 - y14_52 - y15_26 - y18_49 - y0_10 - y29_46 - y40_46 - y48_59 - y40_55 - y21_51 - y33_34 - y4_7 - y10_41 - y41_56 - y25_39 - y52_56 - y4_16 - y44_52 - y33_61 - y44_61 - y25_57 - y3_20 - y14_38 - y37_40 - y37_49 - y7_8
 Subject to
C1: x0+x1 <=1 
C2: x0+x3-y0_3 <=1 
C3: x0+x6 <=1 
C4: x0+x8 <=1 
C5: x0+x9-y0_9 <=1 
C6: x0+x10-y0_10 <=1 
C7: x0+x12-y0_12 <=1 
C8: x0+x15 <=1 
C9: x0+x16 <=1 
C10: x0+x17 <=1 
C11: x0+x21 <=1 
C12: x0+x22 <=1 
C13: x0+x23-y0_23 <=1 
C14: x0+x24 <=1 
C15: x0+x25-y0_25 <=1 
C16: x0+x29 <=1 
C17: x0+x30-y0_30 <=1 
C18: x0+x31-y0_31 <=1 
C19: x0+x33-y0_33 <=1 
C20: x0+x35 <=1 
C21: x0+x36 <=1 
C22: x0+x38 <=1 
C23: x0+x39 <=1 
C24: x0+x40 <=1 
C25: x0+x42-y0_42 <=1 
C26: x0+x43-y0_43 <=1 
C27: x0+x44-y0_44 <=1 
C28: x0+x49-y0_49 <=1 
C29: x0+x51 <=1 
C30: x0+x55 <=1 
C31: x0+x60-y0_60 <=1 
C32: x1+x2-y1_2 <=1 
C33: x1+x3-y1_3 <=1 
C34: x1+x6 <=1 
C35: x1+x7 <=1 
C36: x1+x10-y1_10 <=1 
C37: x1+x11 <=1 
C38: x1+x14-y1_14 <=1 
C39: x1+x15-y1_15 <=1 
C40: x1+x17-y1_17 <=1 
C41: x1+x18-y1_18 <=1 
C42: x1+x19-y1_19 <=1 
C43: x1+x20 <=1 
C44: x1+x21 <=1 
C45: x1+x22 <=1 
C46: x1+x23-y1_23 <=1 
C47: x1+x24-y1_24 <=1 
C48: x1+x25 <=1 
C49: x1+x26 <=1 
C50: x1+x27 <=1 
C51: x1+x28 <=1 
C52: x1+x30 <=1 
C53: x1+x31 <=1 
C54: x1+x32-y1_32 <=1 
C55: x1+x33-y1_33 <=1 
C56: x1+x35-y1_35 <=1 
C57: x1+x36 <=1 
C58: x1+x39 <=1 
C59: x1+x42-y1_42 <=1 
C60: x1+x43 <=1 
C61: x1+x44-y1_44 <=1 
C62: x1+x46-y1_46 <=1 
C63: x1+x50-y1_50 <=1 
C64: x1+x51-y1_51 <=1 
C65: x1+x52 <=1 
C66: x1+x53-y1_53 <=1 
C67: x1+x60 <=1 
C68: x2+x3 <=1 
C69: x2+x7 <=1 
C70: x2+x8 <=1 
C71: x2+x10-y2_10 <=1 
C72: x2+x11 <=1 
C73: x2+x13-y2_13 <=1 
C74: x2+x16-y2_16 <=1 
C75: x2+x17-y2_17 <=1 
C76: x2+x19-y2_19 <=1 
C77: x2+x20 <=1 
C78: x2+x21-y2_21 <=1 
C79: x2+x22 <=1 
C80: x2+x23 <=1 
C81: x2+x24-y2_24 <=1 
C82: x2+x25-y2_25 <=1 
C83: x2+x27-y2_27 <=1 
C84: x2+x29-y2_29 <=1 
C85: x2+x33 <=1 
C86: x2+x34-y2_34 <=1 
C87: x2+x35-y2_35 <=1 
C88: x2+x36-y2_36 <=1 
C89: x2+x37-y2_37 <=1 
C90: x2+x38 <=1 
C91: x2+x43-y2_43 <=1 
C92: x2+x44 <=1 
C93: x2+x46 <=1 
C94: x2+x49 <=1 
C95: x2+x50-y2_50 <=1 
C96: x2+x51-y2_51 <=1 
C97: x2+x52 <=1 
C98: x2+x54 <=1 
C99: x2+x56 <=1 
C100: x2+x57-y2_57 <=1 
C101: x2+x58 <=1 
C102: x2+x59-y2_59 <=1 
C103: x2+x61 <=1 
C104: x3+x4 <=1 
C105: x3+x5 <=1 
C106: x3+x6 <=1 
C107: x3+x8 <=1 
C108: x3+x9 <=1 
C109: x3+x11 <=1 
C110: x3+x12-y3_12 <=1 
C111: x3+x15-y3_15 <=1 
C112: x3+x16-y3_16 <=1 
C113: x3+x20-y3_20 <=1 
C114: x3+x22-y3_22 <=1 
C115: x3+x23 <=1 
C116: x3+x25-y3_25 <=1 
C117: x3+x26-y3_26 <=1 
C118: x3+x27-y3_27 <=1 
C119: x3+x28-y3_28 <=1 
C120: x3+x31-y3_31 <=1 
C121: x3+x32-y3_32 <=1 
C122: x3+x40 <=1 
C123: x3+x41-y3_41 <=1 
C124: x3+x45-y3_45 <=1 
C125: x3+x48 <=1 
C126: x3+x49 <=1 
C127: x3+x50 <=1 
C128: x3+x51 <=1 
C129: x3+x58-y3_58 <=1 
C130: x3+x61 <=1 
C131: x4+x5-y4_5 <=1 
C132: x4+x6 <=1 
C133: x4+x7-y4_7 <=1 
C134: x4+x9 <=1 
C135: x4+x10 <=1 
C136: x4+x11-y4_11 <=1 
C137: x4+x12 <=1 
C138: x4+x13 <=1 
C139: x4+x14 <=1 
C140: x4+x15 <=1 
C141: x4+x16-y4_16 <=1 
C142: x4+x17 <=1 
C143: x4+x19 <=1 
C144: x4+x21-y4_21 <=1 
C145: x4+x22 <=1 
C146: x4+x23 <=1 
C147: x4+x27-y4_27 <=1 
C148: x4+x28-y4_28 <=1 
C149: x4+x30 <=1 
C150: x4+x33-y4_33 <=1 
C151: x4+x34-y4_34 <=1 
C152: x4+x36-y4_36 <=1 
C153: x4+x38-y4_38 <=1 
C154: x4+x39 <=1 
C155: x4+x40-y4_40 <=1 
C156: x4+x41-y4_41 <=1 
C157: x4+x42-y4_42 <=1 
C158: x4+x44 <=1 
C159: x4+x45 <=1 
C160: x4+x46-y4_46 <=1 
C161: x4+x51-y4_51 <=1 
C162: x4+x53 <=1 
C163: x4+x54 <=1 
C164: x4+x55 <=1 
C165: x4+x58-y4_58 <=1 
C166: x4+x59 <=1 
C167: x4+x60 <=1 
C168: x4+x61 <=1 
C169: x5+x6 <=1 
C170: x5+x7 <=1 
C171: x5+x9 <=1 
C172: x5+x11-y5_11 <=1 
C173: x5+x14 <=1 
C174: x5+x15-y5_15 <=1 
C175: x5+x17 <=1 
C176: x5+x18 <=1 
C177: x5+x19-y5_19 <=1 
C178: x5+x21-y5_21 <=1 
C179: x5+x23-y5_23 <=1 
C180: x5+x24-y5_24 <=1 
C181: x5+x31 <=1 
C182: x5+x32-y5_32 <=1 
C183: x5+x34-y5_34 <=1 
C184: x5+x37 <=1 
C185: x5+x38-y5_38 <=1 
C186: x5+x41 <=1 
C187: x5+x43 <=1 
C188: x5+x45 <=1 
C189: x5+x46 <=1 
C190: x5+x48-y5_48 <=1 
C191: x5+x51-y5_51 <=1 
C192: x5+x52 <=1 
C193: x5+x54-y5_54 <=1 
C194: x5+x55-y5_55 <=1 
C195: x5+x57 <=1 
C196: x5+x58-y5_58 <=1 
C197: x5+x59 <=1 
C198: x6+x7-y6_7 <=1 
C199: x6+x9 <=1 
C200: x6+x11 <=1 
C201: x6+x12 <=1 
C202: x6+x13-y6_13 <=1 
C203: x6+x14-y6_14 <=1 
C204: x6+x15 <=1 
C205: x6+x17 <=1 
C206: x6+x19 <=1 
C207: x6+x20 <=1 
C208: x6+x22-y6_22 <=1 
C209: x6+x23-y6_23 <=1 
C210: x6+x25-y6_25 <=1 
C211: x6+x26 <=1 
C212: x6+x30 <=1 
C213: x6+x37 <=1 
C214: x6+x38-y6_38 <=1 
C215: x6+x40-y6_40 <=1 
C216: x6+x41-y6_41 <=1 
C217: x6+x42 <=1 
C218: x6+x45-y6_45 <=1 
C219: x6+x50 <=1 
C220: x6+x52 <=1 
C221: x6+x55 <=1 
C222: x6+x56-y6_56 <=1 
C223: x6+x60 <=1 
C224: x6+x61-y6_61 <=1 
C225: x7+x8-y7_8 <=1 
C226: x7+x10 <=1 
C227: x7+x11 <=1 
C228: x7+x12-y7_12 <=1 
C229: x7+x14 <=1 
C230: x7+x16-y7_16 <=1 
C231: x7+x17 <=1 
C232: x7+x20-y7_20 <=1 
C233: x7+x21-y7_21 <=1 
C234: x7+x24 <=1 
C235: x7+x25 <=1 
C236: x7+x29-y7_29 <=1 
C237: x7+x30 <=1 
C238: x7+x31 <=1 
C239: x7+x33 <=1 
C240: x7+x34 <=1 
C241: x7+x36-y7_36 <=1 
C242: x7+x37 <=1 
C243: x7+x39 <=1 
C244: x7+x41-y7_41 <=1 
C245: x7+x42 <=1 
C246: x7+x48 <=1 
C247: x7+x49 <=1 
C248: x7+x50-y7_50 <=1 
C249: x7+x53-y7_53 <=1 
C250: x7+x56 <=1 
C251: x7+x57 <=1 
C252: x7+x58 <=1 
C253: x7+x60-y7_60 <=1 
C254: x7+x61 <=1 
C255: x8+x9-y8_9 <=1 
C256: x8+x13-y8_13 <=1 
C257: x8+x14 <=1 
C258: x8+x15-y8_15 <=1 
C259: x8+x16 <=1 
C260: x8+x22-y8_22 <=1 
C261: x8+x25-y8_25 <=1 
C262: x8+x27 <=1 
C263: x8+x29-y8_29 <=1 
C264: x8+x30 <=1 
C265: x8+x31-y8_31 <=1 
C266: x8+x33-y8_33 <=1 
C267: x8+x34-y8_34 <=1 
C268: x8+x36-y8_36 <=1 
C269: x8+x37-y8_37 <=1 
C270: x8+x40 <=1 
C271: x8+x44 <=1 
C272: x8+x46 <=1 
C273: x8+x47-y8_47 <=1 
C274: x8+x50 <=1 
C275: x8+x51 <=1 
C276: x8+x52 <=1 
C277: x8+x54 <=1 
C278: x8+x55 <=1 
C279: x8+x56-y8_56 <=1 
C280: x8+x59-y8_59 <=1 
C281: x8+x60-y8_60 <=1 
C282: x9+x13 <=1 
C283: x9+x14-y9_14 <=1 
C284: x9+x16-y9_16 <=1 
C285: x9+x17 <=1 
C286: x9+x18 <=1 
C287: x9+x19 <=1 
C288: x9+x20-y9_20 <=1 
C289: x9+x22 <=1 
C290: x9+x24-y9_24 <=1 
C291: x9+x25 <=1 
C292: x9+x26-y9_26 <=1 
C293: x9+x27-y9_27 <=1 
C294: x9+x28 <=1 
C295: x9+x30-y9_30 <=1 
C296: x9+x31 <=1 
C297: x9+x34-y9_34 <=1 
C298: x9+x35 <=1 
C299: x9+x36-y9_36 <=1 
C300: x9+x37 <=1 
C301: x9+x38-y9_38 <=1 
C302: x9+x39-y9_39 <=1 
C303: x9+x41 <=1 
C304: x9+x42-y9_42 <=1 
C305: x9+x44 <=1 
C306: x9+x46 <=1 
C307: x9+x48-y9_48 <=1 
C308: x9+x50 <=1 
C309: x9+x51 <=1 
C310: x9+x52-y9_52 <=1 
C311: x9+x53 <=1 
C312: x9+x55 <=1 
C313: x9+x56-y9_56 <=1 
C314: x9+x57-y9_57 <=1 
C315: x9+x59-y9_59 <=1 
C316: x9+x60 <=1 
C317: x9+x61 <=1 
C318: x10+x11 <=1 
C319: x10+x12 <=1 
C320: x10+x15 <=1 
C321: x10+x21 <=1 
C322: x10+x23 <=1 
C323: x10+x24-y10_24 <=1 
C324: x10+x25 <=1 
C325: x10+x29-y10_29 <=1 
C326: x10+x35-y10_35 <=1 
C327: x10+x38 <=1 
C328: x10+x41-y10_41 <=1 
C329: x10+x42 <=1 
C330: x10+x43-y10_43 <=1 
C331: x10+x44-y10_44 <=1 
C332: x10+x45-y10_45 <=1 
C333: x10+x46-y10_46 <=1 
C334: x10+x47 <=1 
C335: x10+x49 <=1 
C336: x10+x51-y10_51 <=1 
C337: x10+x53 <=1 
C338: x10+x55 <=1 
C339: x10+x57-y10_57 <=1 
C340: x10+x58 <=1 
C341: x10+x60 <=1 
C342: x10+x61 <=1 
C343: x11+x12-y11_12 <=1 
C344: x11+x13-y11_13 <=1 
C345: x11+x15-y11_15 <=1 
C346: x11+x16 <=1 
C347: x11+x18-y11_18 <=1 
C348: x11+x20-y11_20 <=1 
C349: x11+x21-y11_21 <=1 
C350: x11+x22 <=1 
C351: x11+x23 <=1 
C352: x11+x24-y11_24 <=1 
C353: x11+x26 <=1 
C354: x11+x28 <=1 
C355: x11+x30 <=1 
C356: x11+x31-y11_31 <=1 
C357: x11+x32 <=1 
C358: x11+x33 <=1 
C359: x11+x34 <=1 
C360: x11+x36-y11_36 <=1 
C361: x11+x41 <=1 
C362: x11+x42 <=1 
C363: x11+x43-y11_43 <=1 
C364: x11+x49-y11_49 <=1 
C365: x11+x50-y11_50 <=1 
C366: x11+x51-y11_51 <=1 
C367: x11+x52 <=1 
C368: x11+x53 <=1 
C369: x11+x55-y11_55 <=1 
C370: x11+x56-y11_56 <=1 
C371: x11+x58-y11_58 <=1 
C372: x11+x59 <=1 
C373: x11+x60-y11_60 <=1 
C374: x11+x61 <=1 
C375: x12+x13-y12_13 <=1 
C376: x12+x15 <=1 
C377: x12+x16-y12_16 <=1 
C378: x12+x17-y12_17 <=1 
C379: x12+x18 <=1 
C380: x12+x19-y12_19 <=1 
C381: x12+x20-y12_20 <=1 
C382: x12+x23 <=1 
C383: x12+x24-y12_24 <=1 
C384: x12+x25 <=1 
C385: x12+x27 <=1 
C386: x12+x29-y12_29 <=1 
C387: x12+x30 <=1 
C388: x12+x32 <=1 
C389: x12+x33-y12_33 <=1 
C390: x12+x34 <=1 
C391: x12+x35-y12_35 <=1 
C392: x12+x36 <=1 
C393: x12+x42-y12_42 <=1 
C394: x12+x51 <=1 
C395: x12+x54-y12_54 <=1 
C396: x12+x55-y12_55 <=1 
C397: x12+x56 <=1 
C398: x12+x57 <=1 
C399: x12+x58-y12_58 <=1 
C400: x12+x59 <=1 
C401: x12+x60 <=1 
C402: x12+x61-y12_61 <=1 
C403: x13+x14 <=1 
C404: x13+x15 <=1 
C405: x13+x16 <=1 
C406: x13+x17 <=1 
C407: x13+x18-y13_18 <=1 
C408: x13+x19 <=1 
C409: x13+x20-y13_20 <=1 
C410: x13+x21-y13_21 <=1 
C411: x13+x26-y13_26 <=1 
C412: x13+x30 <=1 
C413: x13+x31-y13_31 <=1 
C414: x13+x32-y13_32 <=1 
C415: x13+x33-y13_33 <=1 
C416: x13+x34-y13_34 <=1 
C417: x13+x35-y13_35 <=1 
C418: x13+x39-y13_39 <=1 
C419: x13+x40 <=1 
C420: x13+x41-y13_41 <=1 
C421: x13+x45-y13_45 <=1 
C422: x13+x46 <=1 
C423: x13+x47 <=1 
C424: x13+x50 <=1 
C425: x13+x51-y13_51 <=1 
C426: x13+x52 <=1 
C427: x13+x54-y13_54 <=1 
C428: x13+x55 <=1 
C429: x13+x56 <=1 
C430: x13+x57 <=1 
C431: x13+x60 <=1 
C432: x13+x61-y13_61 <=1 
C433: x14+x15-y14_15 <=1 
C434: x14+x17-y14_17 <=1 
C435: x14+x18-y14_18 <=1 
C436: x14+x20 <=1 
C437: x14+x21-y14_21 <=1 
C438: x14+x22 <=1 
C439: x14+x23 <=1 
C440: x14+x26 <=1 
C441: x14+x28-y14_28 <=1 
C442: x14+x31 <=1 
C443: x14+x32-y14_32 <=1 
C444: x14+x35 <=1 
C445: x14+x36 <=1 
C446: x14+x38-y14_38 <=1 
C447: x14+x40 <=1 
C448: x14+x41-y14_41 <=1 
C449: x14+x42 <=1 
C450: x14+x43-y14_43 <=1 
C451: x14+x46 <=1 
C452: x14+x47 <=1 
C453: x14+x49-y14_49 <=1 
C454: x14+x50-y14_50 <=1 
C455: x14+x51 <=1 
C456: x14+x52-y14_52 <=1 
C457: x14+x54 <=1 
C458: x14+x55-y14_55 <=1 
C459: x14+x60 <=1 
C460: x15+x19 <=1 
C461: x15+x20-y15_20 <=1 
C462: x15+x23-y15_23 <=1 
C463: x15+x24-y15_24 <=1 
C464: x15+x26-y15_26 <=1 
C465: x15+x27-y15_27 <=1 
C466: x15+x28 <=1 
C467: x15+x30-y15_30 <=1 
C468: x15+x31 <=1 
C469: x15+x33 <=1 
C470: x15+x34-y15_34 <=1 
C471: x15+x35 <=1 
C472: x15+x36-y15_36 <=1 
C473: x15+x37 <=1 
C474: x15+x39-y15_39 <=1 
C475: x15+x40-y15_40 <=1 
C476: x15+x43-y15_43 <=1 
C477: x15+x45 <=1 
C478: x15+x49-y15_49 <=1 
C479: x15+x50 <=1 
C480: x15+x51-y15_51 <=1 
C481: x15+x52 <=1 
C482: x15+x53 <=1 
C483: x15+x57 <=1 
C484: x15+x58 <=1 
C485: x15+x60-y15_60 <=1 
C486: x15+x61 <=1 
C487: x16+x22 <=1 
C488: x16+x23-y16_23 <=1 
C489: x16+x25-y16_25 <=1 
C490: x16+x26-y16_26 <=1 
C491: x16+x30 <=1 
C492: x16+x31 <=1 
C493: x16+x32 <=1 
C494: x16+x35 <=1 
C495: x16+x36-y16_36 <=1 
C496: x16+x37-y16_37 <=1 
C497: x16+x40-y16_40 <=1 
C498: x16+x41-y16_41 <=1 
C499: x16+x42-y16_42 <=1 
C500: x16+x44 <=1 
C501: x16+x45 <=1 
C502: x16+x47-y16_47 <=1 
C503: x16+x48 <=1 
C504: x16+x49 <=1 
C505: x16+x50-y16_50 <=1 
C506: x16+x51-y16_51 <=1 
C507: x16+x55 <=1 
C508: x16+x58 <=1 
C509: x16+x60-y16_60 <=1 
C510: x17+x19-y17_19 <=1 
C511: x17+x20-y17_20 <=1 
C512: x17+x22-y17_22 <=1 
C513: x17+x24-y17_24 <=1 
C514: x17+x25-y17_25 <=1 
C515: x17+x26 <=1 
C516: x17+x28-y17_28 <=1 
C517: x17+x31 <=1 
C518: x17+x34-y17_34 <=1 
C519: x17+x36-y17_36 <=1 
C520: x17+x37 <=1 
C521: x17+x38-y17_38 <=1 
C522: x17+x39-y17_39 <=1 
C523: x17+x40-y17_40 <=1 
C524: x17+x42-y17_42 <=1 
C525: x17+x43 <=1 
C526: x17+x44-y17_44 <=1 
C527: x17+x46 <=1 
C528: x17+x49 <=1 
C529: x17+x52 <=1 
C530: x17+x55-y17_55 <=1 
C531: x17+x56-y17_56 <=1 
C532: x17+x57-y17_57 <=1 
C533: x17+x58 <=1 
C534: x17+x59 <=1 
C535: x17+x60 <=1 
C536: x17+x61-y17_61 <=1 
C537: x18+x19-y18_19 <=1 
C538: x18+x20 <=1 
C539: x18+x21 <=1 
C540: x18+x23-y18_23 <=1 
C541: x18+x24 <=1 
C542: x18+x25-y18_25 <=1 
C543: x18+x26 <=1 
C544: x18+x27 <=1 
C545: x18+x32-y18_32 <=1 
C546: x18+x33-y18_33 <=1 
C547: x18+x34-y18_34 <=1 
C548: x18+x35 <=1 
C549: x18+x38 <=1 
C550: x18+x39-y18_39 <=1 
C551: x18+x40 <=1 
C552: x18+x44 <=1 
C553: x18+x46 <=1 
C554: x18+x49-y18_49 <=1 
C555: x18+x50 <=1 
C556: x18+x55 <=1 
C557: x18+x56-y18_56 <=1 
C558: x18+x61-y18_61 <=1 
C559: x19+x20 <=1 
C560: x19+x21-y19_21 <=1 
C561: x19+x22 <=1 
C562: x19+x24-y19_24 <=1 
C563: x19+x26-y19_26 <=1 
C564: x19+x29 <=1 
C565: x19+x30-y19_30 <=1 
C566: x19+x33-y19_33 <=1 
C567: x19+x34 <=1 
C568: x19+x35-y19_35 <=1 
C569: x19+x37 <=1 
C570: x19+x40 <=1 
C571: x19+x41-y19_41 <=1 
C572: x19+x42-y19_42 <=1 
C573: x19+x43-y19_43 <=1 
C574: x19+x44-y19_44 <=1 
C575: x19+x45 <=1 
C576: x19+x46-y19_46 <=1 
C577: x19+x49 <=1 
C578: x19+x50-y19_50 <=1 
C579: x19+x51-y19_51 <=1 
C580: x19+x53 <=1 
C581: x19+x56 <=1 
C582: x19+x58 <=1 
C583: x19+x59 <=1 
C584: x20+x21 <=1 
C585: x20+x22-y20_22 <=1 
C586: x20+x23 <=1 
C587: x20+x24-y20_24 <=1 
C588: x20+x28-y20_28 <=1 
C589: x20+x30-y20_30 <=1 
C590: x20+x31 <=1 
C591: x20+x33-y20_33 <=1 
C592: x20+x36-y20_36 <=1 
C593: x20+x37-y20_37 <=1 
C594: x20+x38 <=1 
C595: x20+x41-y20_41 <=1 
C596: x20+x43-y20_43 <=1 
C597: x20+x44-y20_44 <=1 
C598: x20+x46 <=1 
C599: x20+x49 <=1 
C600: x20+x51 <=1 
C601: x20+x52 <=1 
C602: x20+x54 <=1 
C603: x20+x56-y20_56 <=1 
C604: x20+x58-y20_58 <=1 
C605: x20+x59-y20_59 <=1 
C606: x20+x60 <=1 
C607: x20+x61 <=1 
C608: x21+x23-y21_23 <=1 
C609: x21+x27 <=1 
C610: x21+x28 <=1 
C611: x21+x30-y21_30 <=1 
C612: x21+x32 <=1 
C613: x21+x33 <=1 
C614: x21+x35 <=1 
C615: x21+x40-y21_40 <=1 
C616: x21+x43-y21_43 <=1 
C617: x21+x44 <=1 
C618: x21+x45-y21_45 <=1 
C619: x21+x47-y21_47 <=1 
C620: x21+x49-y21_49 <=1 
C621: x21+x51-y21_51 <=1 
C622: x21+x54 <=1 
C623: x21+x56-y21_56 <=1 
C624: x21+x57-y21_57 <=1 
C625: x21+x58 <=1 
C626: x21+x59 <=1 
C627: x21+x61-y21_61 <=1 
C628: x22+x26 <=1 
C629: x22+x27 <=1 
C630: x22+x29 <=1 
C631: x22+x30-y22_30 <=1 
C632: x22+x33 <=1 
C633: x22+x36 <=1 
C634: x22+x37 <=1 
C635: x22+x39 <=1 
C636: x22+x46 <=1 
C637: x22+x47 <=1 
C638: x22+x49 <=1 
C639: x22+x50-y22_50 <=1 
C640: x22+x52 <=1 
C641: x22+x54-y22_54 <=1 
C642: x22+x55 <=1 
C643: x22+x57-y22_57 <=1 
C644: x22+x59 <=1 
C645: x22+x61-y22_61 <=1 
C646: x23+x24-y23_24 <=1 
C647: x23+x25-y23_25 <=1 
C648: x23+x31 <=1 
C649: x23+x32-y23_32 <=1 
C650: x23+x33-y23_33 <=1 
C651: x23+x34 <=1 
C652: x23+x35 <=1 
C653: x23+x38-y23_38 <=1 
C654: x23+x39-y23_39 <=1 
C655: x23+x41 <=1 
C656: x23+x45 <=1 
C657: x23+x46-y23_46 <=1 
C658: x23+x48-y23_48 <=1 
C659: x23+x51 <=1 
C660: x23+x52-y23_52 <=1 
C661: x23+x54-y23_54 <=1 
C662: x23+x55 <=1 
C663: x23+x56 <=1 
C664: x23+x58 <=1 
C665: x23+x59 <=1 
C666: x23+x60-y23_60 <=1 
C667: x24+x26-y24_26 <=1 
C668: x24+x27 <=1 
C669: x24+x28 <=1 
C670: x24+x29 <=1 
C671: x24+x30 <=1 
C672: x24+x31 <=1 
C673: x24+x34-y24_34 <=1 
C674: x24+x36 <=1 
C675: x24+x37 <=1 
C676: x24+x38 <=1 
C677: x24+x43 <=1 
C678: x24+x46 <=1 
C679: x24+x48-y24_48 <=1 
C680: x24+x49-y24_49 <=1 
C681: x24+x50 <=1 
C682: x24+x52-y24_52 <=1 
C683: x24+x53-y24_53 <=1 
C684: x24+x55 <=1 
C685: x24+x56 <=1 
C686: x24+x57 <=1 
C687: x24+x58-y24_58 <=1 
C688: x24+x59 <=1 
C689: x24+x60-y24_60 <=1 
C690: x25+x31-y25_31 <=1 
C691: x25+x33-y25_33 <=1 
C692: x25+x35 <=1 
C693: x25+x37-y25_37 <=1 
C694: x25+x39-y25_39 <=1 
C695: x25+x41-y25_41 <=1 
C696: x25+x43 <=1 
C697: x25+x44-y25_44 <=1 
C698: x25+x49-y25_49 <=1 
C699: x25+x53-y25_53 <=1 
C700: x25+x57-y25_57 <=1 
C701: x25+x58 <=1 
C702: x25+x59-y25_59 <=1 
C703: x25+x60-y25_60 <=1 
C704: x25+x61-y25_61 <=1 
C705: x26+x27-y26_27 <=1 
C706: x26+x28-y26_28 <=1 
C707: x26+x29 <=1 
C708: x26+x30-y26_30 <=1 
C709: x26+x36 <=1 
C710: x26+x37 <=1 
C711: x26+x38 <=1 
C712: x26+x39-y26_39 <=1 
C713: x26+x42-y26_42 <=1 
C714: x26+x43-y26_43 <=1 
C715: x26+x44 <=1 
C716: x26+x46-y26_46 <=1 
C717: x26+x47 <=1 
C718: x26+x48-y26_48 <=1 
C719: x26+x50-y26_50 <=1 
C720: x26+x52-y26_52 <=1 
C721: x26+x53-y26_53 <=1 
C722: x26+x54 <=1 
C723: x26+x56-y26_56 <=1 
C724: x26+x57 <=1 
C725: x26+x58 <=1 
C726: x26+x59 <=1 
C727: x27+x30 <=1 
C728: x27+x31 <=1 
C729: x27+x32 <=1 
C730: x27+x33-y27_33 <=1 
C731: x27+x34-y27_34 <=1 
C732: x27+x36 <=1 
C733: x27+x39-y27_39 <=1 
C734: x27+x40 <=1 
C735: x27+x41 <=1 
C736: x27+x42-y27_42 <=1 
C737: x27+x44 <=1 
C738: x27+x45 <=1 
C739: x27+x46-y27_46 <=1 
C740: x27+x47 <=1 
C741: x27+x48-y27_48 <=1 
C742: x27+x49-y27_49 <=1 
C743: x27+x50 <=1 
C744: x27+x53 <=1 
C745: x27+x55 <=1 
C746: x27+x56 <=1 
C747: x27+x61 <=1 
C748: x28+x29-y28_29 <=1 
C749: x28+x31 <=1 
C750: x28+x32-y28_32 <=1 
C751: x28+x33-y28_33 <=1 
C752: x28+x35 <=1 
C753: x28+x36 <=1 
C754: x28+x38 <=1 
C755: x28+x40-y28_40 <=1 
C756: x28+x41 <=1 
C757: x28+x42 <=1 
C758: x28+x43-y28_43 <=1 
C759: x28+x44 <=1 
C760: x28+x45 <=1 
C761: x28+x48-y28_48 <=1 
C762: x28+x52 <=1 
C763: x28+x53 <=1 
C764: x28+x54 <=1 
C765: x28+x55-y28_55 <=1 
C766: x28+x60 <=1 
C767: x28+x61 <=1 
C768: x29+x31-y29_31 <=1 
C769: x29+x32 <=1 
C770: x29+x35 <=1 
C771: x29+x36-y29_36 <=1 
C772: x29+x37-y29_37 <=1 
C773: x29+x38-y29_38 <=1 
C774: x29+x39 <=1 
C775: x29+x40-y29_40 <=1 
C776: x29+x41 <=1 
C777: x29+x42 <=1 
C778: x29+x44 <=1 
C779: x29+x45-y29_45 <=1 
C780: x29+x46-y29_46 <=1 
C781: x29+x47 <=1 
C782: x29+x48 <=1 
C783: x29+x49-y29_49 <=1 
C784: x29+x50 <=1 
C785: x29+x52-y29_52 <=1 
C786: x29+x53 <=1 
C787: x29+x54-y29_54 <=1 
C788: x29+x56 <=1 
C789: x29+x57 <=1 
C790: x29+x59 <=1 
C791: x30+x31-y30_31 <=1 
C792: x30+x33 <=1 
C793: x30+x35-y30_35 <=1 
C794: x30+x37-y30_37 <=1 
C795: x30+x39 <=1 
C796: x30+x40-y30_40 <=1 
C797: x30+x41-y30_41 <=1 
C798: x30+x42 <=1 
C799: x30+x44 <=1 
C800: x30+x47-y30_47 <=1 
C801: x30+x48-y30_48 <=1 
C802: x30+x49-y30_49 <=1 
C803: x30+x52 <=1 
C804: x30+x55-y30_55 <=1 
C805: x30+x56 <=1 
C806: x30+x57-y30_57 <=1 
C807: x30+x59-y30_59 <=1 
C808: x30+x60-y30_60 <=1 
C809: x30+x61 <=1 
C810: x31+x32 <=1 
C811: x31+x34 <=1 
C812: x31+x35-y31_35 <=1 
C813: x31+x36 <=1 
C814: x31+x37-y31_37 <=1 
C815: x31+x39 <=1 
C816: x31+x42-y31_42 <=1 
C817: x31+x43 <=1 
C818: x31+x45-y31_45 <=1 
C819: x31+x46-y31_46 <=1 
C820: x31+x50-y31_50 <=1 
C821: x31+x51-y31_51 <=1 
C822: x31+x53 <=1 
C823: x31+x57 <=1 
C824: x31+x58 <=1 
C825: x31+x61 <=1 
C826: x32+x33-y32_33 <=1 
C827: x32+x35 <=1 
C828: x32+x39-y32_39 <=1 
C829: x32+x40 <=1 
C830: x32+x41-y32_41 <=1 
C831: x32+x42-y32_42 <=1 
C832: x32+x43 <=1 
C833: x32+x44-y32_44 <=1 
C834: x32+x46 <=1 
C835: x32+x48-y32_48 <=1 
C836: x32+x51-y32_51 <=1 
C837: x32+x52-y32_52 <=1 
C838: x32+x53 <=1 
C839: x32+x55 <=1 
C840: x32+x56-y32_56 <=1 
C841: x32+x57-y32_57 <=1 
C842: x32+x58 <=1 
C843: x32+x60 <=1 
C844: x33+x34-y33_34 <=1 
C845: x33+x36-y33_36 <=1 
C846: x33+x37 <=1 
C847: x33+x39-y33_39 <=1 
C848: x33+x40-y33_40 <=1 
C849: x33+x43 <=1 
C850: x33+x44-y33_44 <=1 
C851: x33+x46-y33_46 <=1 
C852: x33+x47-y33_47 <=1 
C853: x33+x48 <=1 
C854: x33+x50 <=1 
C855: x33+x51-y33_51 <=1 
C856: x33+x55 <=1 
C857: x33+x56 <=1 
C858: x33+x57-y33_57 <=1 
C859: x33+x58 <=1 
C860: x33+x60 <=1 
C861: x33+x61-y33_61 <=1 
C862: x34+x38-y34_38 <=1 
C863: x34+x40 <=1 
C864: x34+x41 <=1 
C865: x34+x42 <=1 
C866: x34+x43 <=1 
C867: x34+x44 <=1 
C868: x34+x45-y34_45 <=1 
C869: x34+x46 <=1 
C870: x34+x49 <=1 
C871: x34+x50 <=1 
C872: x34+x54-y34_54 <=1 
C873: x34+x55-y34_55 <=1 
C874: x34+x57-y34_57 <=1 
C875: x34+x58-y34_58 <=1 
C876: x34+x59 <=1 
C877: x34+x61-y34_61 <=1 
C878: x35+x36 <=1 
C879: x35+x39 <=1 
C880: x35+x41 <=1 
C881: x35+x42-y35_42 <=1 
C882: x35+x43 <=1 
C883: x35+x44 <=1 
C884: x35+x46 <=1 
C885: x35+x47-y35_47 <=1 
C886: x35+x48-y35_48 <=1 
C887: x35+x49-y35_49 <=1 
C888: x35+x50-y35_50 <=1 
C889: x35+x51-y35_51 <=1 
C890: x35+x52-y35_52 <=1 
C891: x35+x54 <=1 
C892: x35+x58-y35_58 <=1 
C893: x35+x59-y35_59 <=1 
C894: x35+x60-y35_60 <=1 
C895: x36+x37-y36_37 <=1 
C896: x36+x38-y36_38 <=1 
C897: x36+x42-y36_42 <=1 
C898: x36+x43-y36_43 <=1 
C899: x36+x44-y36_44 <=1 
C900: x36+x46 <=1 
C901: x36+x49 <=1 
C902: x36+x50 <=1 
C903: x36+x51 <=1 
C904: x36+x52 <=1 
C905: x36+x54-y36_54 <=1 
C906: x36+x57-y36_57 <=1 
C907: x36+x58-y36_58 <=1 
C908: x36+x61-y36_61 <=1 
C909: x37+x38 <=1 
C910: x37+x40-y37_40 <=1 
C911: x37+x41-y37_41 <=1 
C912: x37+x42 <=1 
C913: x37+x43 <=1 
C914: x37+x46 <=1 
C915: x37+x47-y37_47 <=1 
C916: x37+x49-y37_49 <=1 
C917: x37+x50-y37_50 <=1 
C918: x37+x51 <=1 
C919: x37+x56-y37_56 <=1 
C920: x37+x57 <=1 
C921: x37+x58-y37_58 <=1 
C922: x37+x59 <=1 
C923: x37+x61-y37_61 <=1 
C924: x38+x39 <=1 
C925: x38+x40-y38_40 <=1 
C926: x38+x41 <=1 
C927: x38+x42-y38_42 <=1 
C928: x38+x43-y38_43 <=1 
C929: x38+x45-y38_45 <=1 
C930: x38+x46 <=1 
C931: x38+x47 <=1 
C932: x38+x51 <=1 
C933: x38+x52-y38_52 <=1 
C934: x38+x53 <=1 
C935: x38+x54 <=1 
C936: x38+x55 <=1 
C937: x38+x56 <=1 
C938: x38+x58 <=1 
C939: x38+x61-y38_61 <=1 
C940: x39+x40-y39_40 <=1 
C941: x39+x41 <=1 
C942: x39+x42 <=1 
C943: x39+x44-y39_44 <=1 
C944: x39+x45 <=1 
C945: x39+x46 <=1 
C946: x39+x47-y39_47 <=1 
C947: x39+x48 <=1 
C948: x39+x49 <=1 
C949: x39+x51-y39_51 <=1 
C950: x39+x53 <=1 
C951: x39+x58-y39_58 <=1 
C952: x39+x59 <=1 
C953: x39+x60 <=1 
C954: x40+x42-y40_42 <=1 
C955: x40+x43-y40_43 <=1 
C956: x40+x46-y40_46 <=1 
C957: x40+x47 <=1 
C958: x40+x51-y40_51 <=1 
C959: x40+x55-y40_55 <=1 
C960: x40+x57-y40_57 <=1 
C961: x40+x58 <=1 
C962: x40+x59-y40_59 <=1 
C963: x40+x60 <=1 
C964: x41+x43-y41_43 <=1 
C965: x41+x44 <=1 
C966: x41+x46-y41_46 <=1 
C967: x41+x47 <=1 
C968: x41+x48 <=1 
C969: x41+x49-y41_49 <=1 
C970: x41+x50-y41_50 <=1 
C971: x41+x51-y41_51 <=1 
C972: x41+x56-y41_56 <=1 
C973: x41+x57-y41_57 <=1 
C974: x41+x59-y41_59 <=1 
C975: x41+x61-y41_61 <=1 
C976: x42+x43-y42_43 <=1 
C977: x42+x44 <=1 
C978: x42+x46-y42_46 <=1 
C979: x42+x47-y42_47 <=1 
C980: x42+x48 <=1 
C981: x42+x49-y42_49 <=1 
C982: x42+x50 <=1 
C983: x42+x51-y42_51 <=1 
C984: x42+x52-y42_52 <=1 
C985: x42+x54 <=1 
C986: x42+x56-y42_56 <=1 
C987: x42+x57-y42_57 <=1 
C988: x42+x59 <=1 
C989: x42+x60-y42_60 <=1 
C990: x43+x44 <=1 
C991: x43+x45-y43_45 <=1 
C992: x43+x46-y43_46 <=1 
C993: x43+x47-y43_47 <=1 
C994: x43+x48 <=1 
C995: x43+x55-y43_55 <=1 
C996: x43+x57 <=1 
C997: x43+x58 <=1 
C998: x43+x59 <=1 
C999: x43+x60 <=1 
C1000: x43+x61-y43_61 <=1 
C1001: x44+x45-y44_45 <=1 
C1002: x44+x47-y44_47 <=1 
C1003: x44+x48 <=1 
C1004: x44+x49-y44_49 <=1 
C1005: x44+x51 <=1 
C1006: x44+x52-y44_52 <=1 
C1007: x44+x54 <=1 
C1008: x44+x55-y44_55 <=1 
C1009: x44+x56-y44_56 <=1 
C1010: x44+x57-y44_57 <=1 
C1011: x44+x59 <=1 
C1012: x44+x60 <=1 
C1013: x44+x61-y44_61 <=1 
C1014: x45+x46 <=1 
C1015: x45+x47 <=1 
C1016: x45+x48-y45_48 <=1 
C1017: x45+x49-y45_49 <=1 
C1018: x45+x50 <=1 
C1019: x45+x54-y45_54 <=1 
C1020: x45+x55-y45_55 <=1 
C1021: x45+x56 <=1 
C1022: x45+x59 <=1 
C1023: x45+x61 <=1 
C1024: x46+x47-y46_47 <=1 
C1025: x46+x48 <=1 
C1026: x46+x51 <=1 
C1027: x46+x52-y46_52 <=1 
C1028: x46+x53 <=1 
C1029: x46+x54-y46_54 <=1 
C1030: x46+x55 <=1 
C1031: x46+x56-y46_56 <=1 
C1032: x46+x57-y46_57 <=1 
C1033: x47+x48 <=1 
C1034: x47+x49-y47_49 <=1 
C1035: x47+x50 <=1 
C1036: x47+x51-y47_51 <=1 
C1037: x47+x53-y47_53 <=1 
C1038: x47+x58-y47_58 <=1 
C1039: x47+x61-y47_61 <=1 
C1040: x48+x52-y48_52 <=1 
C1041: x48+x53-y48_53 <=1 
C1042: x48+x55 <=1 
C1043: x48+x56-y48_56 <=1 
C1044: x48+x57-y48_57 <=1 
C1045: x48+x58-y48_58 <=1 
C1046: x48+x59-y48_59 <=1 
C1047: x49+x50-y49_50 <=1 
C1048: x49+x51 <=1 
C1049: x49+x52-y49_52 <=1 
C1050: x49+x54-y49_54 <=1 
C1051: x49+x55 <=1 
C1052: x49+x56 <=1 
C1053: x49+x58 <=1 
C1054: x49+x59-y49_59 <=1 
C1055: x49+x60 <=1 
C1056: x50+x52 <=1 
C1057: x50+x53-y50_53 <=1 
C1058: x50+x57 <=1 
C1059: x50+x58 <=1 
C1060: x50+x59 <=1 
C1061: x50+x60 <=1 
C1062: x51+x53-y51_53 <=1 
C1063: x51+x54-y51_54 <=1 
C1064: x51+x55-y51_55 <=1 
C1065: x51+x58-y51_58 <=1 
C1066: x51+x60 <=1 
C1067: x51+x61 <=1 
C1068: x52+x55 <=1 
C1069: x52+x56-y52_56 <=1 
C1070: x52+x57-y52_57 <=1 
C1071: x52+x58 <=1 
C1072: x52+x60 <=1 
C1073: x52+x61 <=1 
C1074: x53+x55-y53_55 <=1 
C1075: x53+x56-y53_56 <=1 
C1076: x53+x58-y53_58 <=1 
C1077: x53+x59-y53_59 <=1 
C1078: x53+x61 <=1 
C1079: x54+x56 <=1 
C1080: x54+x57 <=1 
C1081: x54+x58-y54_58 <=1 
C1082: x54+x59-y54_59 <=1 
C1083: x54+x60-y54_60 <=1 
C1084: x54+x61-y54_61 <=1 
C1085: x55+x56 <=1 
C1086: x55+x59-y55_59 <=1 
C1087: x55+x60-y55_60 <=1 
C1088: x56+x57 <=1 
C1089: x56+x58 <=1 
C1090: x56+x59 <=1 
C1091: x56+x60-y56_60 <=1 
C1092: x57+x58-y57_58 <=1 
C1093: x57+x59-y57_59 <=1 
C1094: x57+x60 <=1 
C1095: x57+x61-y57_61 <=1 
C1096: x58+x61-y58_61 <=1 
C1097: x59+x60 <=1 
C1098: x59+x61-y59_61 <=1 
C1099: x60+x61 <=1 

binary
x0
x1
x2
x3
x4
x5
x6
x7
x8
x9
x10
x11
x12
x13
x14
x15
x16
x17
x18
x19
x20
x21
x22
x23
x24
x25
x26
x27
x28
x29
x30
x31
x32
x33
x34
x35
x36
x37
x38
x39
x40
x41
x42
x43
x44
x45
x46
x47
x48
x49
x50
x51
x52
x53
x54
x55
x56
x57
x58
x59
x60
x61
