problem_generation/data/GISP/train/er_n=62_m=1099_p=0.60_SET2_setparam=100.00_alpha=0.50_102.sol
objective value:                                 1262
x8                                                  1 	(obj:100)
x17                                                 1 	(obj:100)
x18                                                 1 	(obj:100)
x19                                                 1 	(obj:100)
x23                                                 1 	(obj:100)
x25                                                 1 	(obj:100)
x32                                                 1 	(obj:100)
x33                                                 1 	(obj:100)
x36                                                 1 	(obj:100)
x42                                                 1 	(obj:100)
x47                                                 1 	(obj:100)
x57                                                 1 	(obj:100)
x61                                                 1 	(obj:100)
y33_47                                              1 	(obj:-1)
y25_61                                              1 	(obj:-1)
y36_57                                              1 	(obj:-1)
y36_61                                              1 	(obj:-1)
y47_61                                              1 	(obj:-1)
y17_57                                              1 	(obj:-1)
y25_33                                              1 	(obj:-1)
y17_25                                              1 	(obj:-1)
y17_61                                              1 	(obj:-1)
y36_42                                              1 	(obj:-1)
y17_42                                              1 	(obj:-1)
y17_19                                              1 	(obj:-1)
y42_57                                              1 	(obj:-1)
y23_25                                              1 	(obj:-1)
y8_36                                               1 	(obj:-1)
y42_47                                              1 	(obj:-1)
y23_33                                              1 	(obj:-1)
y18_25                                              1 	(obj:-1)
y18_61                                              1 	(obj:-1)
y18_33                                              1 	(obj:-1)
y33_36                                              1 	(obj:-1)
y18_19                                              1 	(obj:-1)
y18_23                                              1 	(obj:-1)
y32_57                                              1 	(obj:-1)
y17_36                                              1 	(obj:-1)
y32_33                                              1 	(obj:-1)
y32_42                                              1 	(obj:-1)
y23_32                                              1 	(obj:-1)
y57_61                                              1 	(obj:-1)
y8_25                                               1 	(obj:-1)
y8_47                                               1 	(obj:-1)
y18_32                                              1 	(obj:-1)
y8_33                                               1 	(obj:-1)
y19_33                                              1 	(obj:-1)
y19_42                                              1 	(obj:-1)
y33_57                                              1 	(obj:-1)
y33_61                                              1 	(obj:-1)
y25_57                                              1 	(obj:-1)
